c File: flat200_3_0.col
c
c SOURCE: Joseph Culberson (joe@cs.ualberta.ca)
c DESCRIPTION: Quasi-random coloring problem
c              generated with flatness = 0
c                             probability = 0.036
c                             known coloring = 3
c                             random seed = 1069
c              Creation Date:  Wed Feb 24 10:40:08 1999
c Maximum degree = 8 Minimum degree = 0
c COLOR VERIFICATION: Using the permuted order
c under simple greedy yields the specified
c coloring number
c Color = 3 specified partitions = 3
c p edge 200 479
c cnf created by edge2cnf
p cnf 600 2237
-1 -2 0
-1 -3 0
-2 -3 0
1 2 3 0
-4 -5 0
-4 -6 0
-5 -6 0
4 5 6 0
-7 -8 0
-7 -9 0
-8 -9 0
7 8 9 0
-10 -11 0
-10 -12 0
-11 -12 0
10 11 12 0
-13 -14 0
-13 -15 0
-14 -15 0
13 14 15 0
-16 -17 0
-16 -18 0
-17 -18 0
16 17 18 0
-19 -20 0
-19 -21 0
-20 -21 0
19 20 21 0
-22 -23 0
-22 -24 0
-23 -24 0
22 23 24 0
-25 -26 0
-25 -27 0
-26 -27 0
25 26 27 0
-28 -29 0
-28 -30 0
-29 -30 0
28 29 30 0
-31 -32 0
-31 -33 0
-32 -33 0
31 32 33 0
-34 -35 0
-34 -36 0
-35 -36 0
34 35 36 0
-37 -38 0
-37 -39 0
-38 -39 0
37 38 39 0
-40 -41 0
-40 -42 0
-41 -42 0
40 41 42 0
-43 -44 0
-43 -45 0
-44 -45 0
43 44 45 0
-46 -47 0
-46 -48 0
-47 -48 0
46 47 48 0
-49 -50 0
-49 -51 0
-50 -51 0
49 50 51 0
-52 -53 0
-52 -54 0
-53 -54 0
52 53 54 0
-55 -56 0
-55 -57 0
-56 -57 0
55 56 57 0
-58 -59 0
-58 -60 0
-59 -60 0
58 59 60 0
-61 -62 0
-61 -63 0
-62 -63 0
61 62 63 0
-64 -65 0
-64 -66 0
-65 -66 0
64 65 66 0
-67 -68 0
-67 -69 0
-68 -69 0
67 68 69 0
-70 -71 0
-70 -72 0
-71 -72 0
70 71 72 0
-73 -74 0
-73 -75 0
-74 -75 0
73 74 75 0
-76 -77 0
-76 -78 0
-77 -78 0
76 77 78 0
-79 -80 0
-79 -81 0
-80 -81 0
79 80 81 0
-82 -83 0
-82 -84 0
-83 -84 0
82 83 84 0
-85 -86 0
-85 -87 0
-86 -87 0
85 86 87 0
-88 -89 0
-88 -90 0
-89 -90 0
88 89 90 0
-91 -92 0
-91 -93 0
-92 -93 0
91 92 93 0
-94 -95 0
-94 -96 0
-95 -96 0
94 95 96 0
-97 -98 0
-97 -99 0
-98 -99 0
97 98 99 0
-100 -101 0
-100 -102 0
-101 -102 0
100 101 102 0
-103 -104 0
-103 -105 0
-104 -105 0
103 104 105 0
-106 -107 0
-106 -108 0
-107 -108 0
106 107 108 0
-109 -110 0
-109 -111 0
-110 -111 0
109 110 111 0
-112 -113 0
-112 -114 0
-113 -114 0
112 113 114 0
-115 -116 0
-115 -117 0
-116 -117 0
115 116 117 0
-118 -119 0
-118 -120 0
-119 -120 0
118 119 120 0
-121 -122 0
-121 -123 0
-122 -123 0
121 122 123 0
-124 -125 0
-124 -126 0
-125 -126 0
124 125 126 0
-127 -128 0
-127 -129 0
-128 -129 0
127 128 129 0
-130 -131 0
-130 -132 0
-131 -132 0
130 131 132 0
-133 -134 0
-133 -135 0
-134 -135 0
133 134 135 0
-136 -137 0
-136 -138 0
-137 -138 0
136 137 138 0
-139 -140 0
-139 -141 0
-140 -141 0
139 140 141 0
-142 -143 0
-142 -144 0
-143 -144 0
142 143 144 0
-145 -146 0
-145 -147 0
-146 -147 0
145 146 147 0
-148 -149 0
-148 -150 0
-149 -150 0
148 149 150 0
-151 -152 0
-151 -153 0
-152 -153 0
151 152 153 0
-154 -155 0
-154 -156 0
-155 -156 0
154 155 156 0
-157 -158 0
-157 -159 0
-158 -159 0
157 158 159 0
-160 -161 0
-160 -162 0
-161 -162 0
160 161 162 0
-163 -164 0
-163 -165 0
-164 -165 0
163 164 165 0
-166 -167 0
-166 -168 0
-167 -168 0
166 167 168 0
-169 -170 0
-169 -171 0
-170 -171 0
169 170 171 0
-172 -173 0
-172 -174 0
-173 -174 0
172 173 174 0
-175 -176 0
-175 -177 0
-176 -177 0
175 176 177 0
-178 -179 0
-178 -180 0
-179 -180 0
178 179 180 0
-181 -182 0
-181 -183 0
-182 -183 0
181 182 183 0
-184 -185 0
-184 -186 0
-185 -186 0
184 185 186 0
-187 -188 0
-187 -189 0
-188 -189 0
187 188 189 0
-190 -191 0
-190 -192 0
-191 -192 0
190 191 192 0
-193 -194 0
-193 -195 0
-194 -195 0
193 194 195 0
-196 -197 0
-196 -198 0
-197 -198 0
196 197 198 0
-199 -200 0
-199 -201 0
-200 -201 0
199 200 201 0
-202 -203 0
-202 -204 0
-203 -204 0
202 203 204 0
-205 -206 0
-205 -207 0
-206 -207 0
205 206 207 0
-208 -209 0
-208 -210 0
-209 -210 0
208 209 210 0
-211 -212 0
-211 -213 0
-212 -213 0
211 212 213 0
-214 -215 0
-214 -216 0
-215 -216 0
214 215 216 0
-217 -218 0
-217 -219 0
-218 -219 0
217 218 219 0
-220 -221 0
-220 -222 0
-221 -222 0
220 221 222 0
-223 -224 0
-223 -225 0
-224 -225 0
223 224 225 0
-226 -227 0
-226 -228 0
-227 -228 0
226 227 228 0
-229 -230 0
-229 -231 0
-230 -231 0
229 230 231 0
-232 -233 0
-232 -234 0
-233 -234 0
232 233 234 0
-235 -236 0
-235 -237 0
-236 -237 0
235 236 237 0
-238 -239 0
-238 -240 0
-239 -240 0
238 239 240 0
-241 -242 0
-241 -243 0
-242 -243 0
241 242 243 0
-244 -245 0
-244 -246 0
-245 -246 0
244 245 246 0
-247 -248 0
-247 -249 0
-248 -249 0
247 248 249 0
-250 -251 0
-250 -252 0
-251 -252 0
250 251 252 0
-253 -254 0
-253 -255 0
-254 -255 0
253 254 255 0
-256 -257 0
-256 -258 0
-257 -258 0
256 257 258 0
-259 -260 0
-259 -261 0
-260 -261 0
259 260 261 0
-262 -263 0
-262 -264 0
-263 -264 0
262 263 264 0
-265 -266 0
-265 -267 0
-266 -267 0
265 266 267 0
-268 -269 0
-268 -270 0
-269 -270 0
268 269 270 0
-271 -272 0
-271 -273 0
-272 -273 0
271 272 273 0
-274 -275 0
-274 -276 0
-275 -276 0
274 275 276 0
-277 -278 0
-277 -279 0
-278 -279 0
277 278 279 0
-280 -281 0
-280 -282 0
-281 -282 0
280 281 282 0
-283 -284 0
-283 -285 0
-284 -285 0
283 284 285 0
-286 -287 0
-286 -288 0
-287 -288 0
286 287 288 0
-289 -290 0
-289 -291 0
-290 -291 0
289 290 291 0
-292 -293 0
-292 -294 0
-293 -294 0
292 293 294 0
-295 -296 0
-295 -297 0
-296 -297 0
295 296 297 0
-298 -299 0
-298 -300 0
-299 -300 0
298 299 300 0
-301 -302 0
-301 -303 0
-302 -303 0
301 302 303 0
-304 -305 0
-304 -306 0
-305 -306 0
304 305 306 0
-307 -308 0
-307 -309 0
-308 -309 0
307 308 309 0
-310 -311 0
-310 -312 0
-311 -312 0
310 311 312 0
-313 -314 0
-313 -315 0
-314 -315 0
313 314 315 0
-316 -317 0
-316 -318 0
-317 -318 0
316 317 318 0
-319 -320 0
-319 -321 0
-320 -321 0
319 320 321 0
-322 -323 0
-322 -324 0
-323 -324 0
322 323 324 0
-325 -326 0
-325 -327 0
-326 -327 0
325 326 327 0
-328 -329 0
-328 -330 0
-329 -330 0
328 329 330 0
-331 -332 0
-331 -333 0
-332 -333 0
331 332 333 0
-334 -335 0
-334 -336 0
-335 -336 0
334 335 336 0
-337 -338 0
-337 -339 0
-338 -339 0
337 338 339 0
-340 -341 0
-340 -342 0
-341 -342 0
340 341 342 0
-343 -344 0
-343 -345 0
-344 -345 0
343 344 345 0
-346 -347 0
-346 -348 0
-347 -348 0
346 347 348 0
-349 -350 0
-349 -351 0
-350 -351 0
349 350 351 0
-352 -353 0
-352 -354 0
-353 -354 0
352 353 354 0
-355 -356 0
-355 -357 0
-356 -357 0
355 356 357 0
-358 -359 0
-358 -360 0
-359 -360 0
358 359 360 0
-361 -362 0
-361 -363 0
-362 -363 0
361 362 363 0
-364 -365 0
-364 -366 0
-365 -366 0
364 365 366 0
-367 -368 0
-367 -369 0
-368 -369 0
367 368 369 0
-370 -371 0
-370 -372 0
-371 -372 0
370 371 372 0
-373 -374 0
-373 -375 0
-374 -375 0
373 374 375 0
-376 -377 0
-376 -378 0
-377 -378 0
376 377 378 0
-379 -380 0
-379 -381 0
-380 -381 0
379 380 381 0
-382 -383 0
-382 -384 0
-383 -384 0
382 383 384 0
-385 -386 0
-385 -387 0
-386 -387 0
385 386 387 0
-388 -389 0
-388 -390 0
-389 -390 0
388 389 390 0
-391 -392 0
-391 -393 0
-392 -393 0
391 392 393 0
-394 -395 0
-394 -396 0
-395 -396 0
394 395 396 0
-397 -398 0
-397 -399 0
-398 -399 0
397 398 399 0
-400 -401 0
-400 -402 0
-401 -402 0
400 401 402 0
-403 -404 0
-403 -405 0
-404 -405 0
403 404 405 0
-406 -407 0
-406 -408 0
-407 -408 0
406 407 408 0
-409 -410 0
-409 -411 0
-410 -411 0
409 410 411 0
-412 -413 0
-412 -414 0
-413 -414 0
412 413 414 0
-415 -416 0
-415 -417 0
-416 -417 0
415 416 417 0
-418 -419 0
-418 -420 0
-419 -420 0
418 419 420 0
-421 -422 0
-421 -423 0
-422 -423 0
421 422 423 0
-424 -425 0
-424 -426 0
-425 -426 0
424 425 426 0
-427 -428 0
-427 -429 0
-428 -429 0
427 428 429 0
-430 -431 0
-430 -432 0
-431 -432 0
430 431 432 0
-433 -434 0
-433 -435 0
-434 -435 0
433 434 435 0
-436 -437 0
-436 -438 0
-437 -438 0
436 437 438 0
-439 -440 0
-439 -441 0
-440 -441 0
439 440 441 0
-442 -443 0
-442 -444 0
-443 -444 0
442 443 444 0
-445 -446 0
-445 -447 0
-446 -447 0
445 446 447 0
-448 -449 0
-448 -450 0
-449 -450 0
448 449 450 0
-451 -452 0
-451 -453 0
-452 -453 0
451 452 453 0
-454 -455 0
-454 -456 0
-455 -456 0
454 455 456 0
-457 -458 0
-457 -459 0
-458 -459 0
457 458 459 0
-460 -461 0
-460 -462 0
-461 -462 0
460 461 462 0
-463 -464 0
-463 -465 0
-464 -465 0
463 464 465 0
-466 -467 0
-466 -468 0
-467 -468 0
466 467 468 0
-469 -470 0
-469 -471 0
-470 -471 0
469 470 471 0
-472 -473 0
-472 -474 0
-473 -474 0
472 473 474 0
-475 -476 0
-475 -477 0
-476 -477 0
475 476 477 0
-478 -479 0
-478 -480 0
-479 -480 0
478 479 480 0
-481 -482 0
-481 -483 0
-482 -483 0
481 482 483 0
-484 -485 0
-484 -486 0
-485 -486 0
484 485 486 0
-487 -488 0
-487 -489 0
-488 -489 0
487 488 489 0
-490 -491 0
-490 -492 0
-491 -492 0
490 491 492 0
-493 -494 0
-493 -495 0
-494 -495 0
493 494 495 0
-496 -497 0
-496 -498 0
-497 -498 0
496 497 498 0
-499 -500 0
-499 -501 0
-500 -501 0
499 500 501 0
-502 -503 0
-502 -504 0
-503 -504 0
502 503 504 0
-505 -506 0
-505 -507 0
-506 -507 0
505 506 507 0
-508 -509 0
-508 -510 0
-509 -510 0
508 509 510 0
-511 -512 0
-511 -513 0
-512 -513 0
511 512 513 0
-514 -515 0
-514 -516 0
-515 -516 0
514 515 516 0
-517 -518 0
-517 -519 0
-518 -519 0
517 518 519 0
-520 -521 0
-520 -522 0
-521 -522 0
520 521 522 0
-523 -524 0
-523 -525 0
-524 -525 0
523 524 525 0
-526 -527 0
-526 -528 0
-527 -528 0
526 527 528 0
-529 -530 0
-529 -531 0
-530 -531 0
529 530 531 0
-532 -533 0
-532 -534 0
-533 -534 0
532 533 534 0
-535 -536 0
-535 -537 0
-536 -537 0
535 536 537 0
-538 -539 0
-538 -540 0
-539 -540 0
538 539 540 0
-541 -542 0
-541 -543 0
-542 -543 0
541 542 543 0
-544 -545 0
-544 -546 0
-545 -546 0
544 545 546 0
-547 -548 0
-547 -549 0
-548 -549 0
547 548 549 0
-550 -551 0
-550 -552 0
-551 -552 0
550 551 552 0
-553 -554 0
-553 -555 0
-554 -555 0
553 554 555 0
-556 -557 0
-556 -558 0
-557 -558 0
556 557 558 0
-559 -560 0
-559 -561 0
-560 -561 0
559 560 561 0
-562 -563 0
-562 -564 0
-563 -564 0
562 563 564 0
-565 -566 0
-565 -567 0
-566 -567 0
565 566 567 0
-568 -569 0
-568 -570 0
-569 -570 0
568 569 570 0
-571 -572 0
-571 -573 0
-572 -573 0
571 572 573 0
-574 -575 0
-574 -576 0
-575 -576 0
574 575 576 0
-577 -578 0
-577 -579 0
-578 -579 0
577 578 579 0
-580 -581 0
-580 -582 0
-581 -582 0
580 581 582 0
-583 -584 0
-583 -585 0
-584 -585 0
583 584 585 0
-586 -587 0
-586 -588 0
-587 -588 0
586 587 588 0
-589 -590 0
-589 -591 0
-590 -591 0
589 590 591 0
-592 -593 0
-592 -594 0
-593 -594 0
592 593 594 0
-595 -596 0
-595 -597 0
-596 -597 0
595 596 597 0
-598 -599 0
-598 -600 0
-599 -600 0
598 599 600 0
-16 -1 0
-17 -2 0
-18 -3 0
-385 -1 0
-386 -2 0
-387 -3 0
-418 -1 0
-419 -2 0
-420 -3 0
-424 -1 0
-425 -2 0
-426 -3 0
-436 -1 0
-437 -2 0
-438 -3 0
-523 -1 0
-524 -2 0
-525 -3 0
-58 -4 0
-59 -5 0
-60 -6 0
-169 -4 0
-170 -5 0
-171 -6 0
-280 -4 0
-281 -5 0
-282 -6 0
-391 -4 0
-392 -5 0
-393 -6 0
-409 -4 0
-410 -5 0
-411 -6 0
-595 -4 0
-596 -5 0
-597 -6 0
-157 -7 0
-158 -8 0
-159 -9 0
-328 -7 0
-329 -8 0
-330 -9 0
-370 -7 0
-371 -8 0
-372 -9 0
-472 -7 0
-473 -8 0
-474 -9 0
-523 -7 0
-524 -8 0
-525 -9 0
-19 -10 0
-20 -11 0
-21 -12 0
-178 -10 0
-179 -11 0
-180 -12 0
-232 -10 0
-233 -11 0
-234 -12 0
-424 -10 0
-425 -11 0
-426 -12 0
-61 -13 0
-62 -14 0
-63 -15 0
-130 -13 0
-131 -14 0
-132 -15 0
-187 -13 0
-188 -14 0
-189 -15 0
-334 -13 0
-335 -14 0
-336 -15 0
-448 -13 0
-449 -14 0
-450 -15 0
-469 -13 0
-470 -14 0
-471 -15 0
-91 -16 0
-92 -17 0
-93 -18 0
-136 -16 0
-137 -17 0
-138 -18 0
-232 -16 0
-233 -17 0
-234 -18 0
-532 -16 0
-533 -17 0
-534 -18 0
-553 -16 0
-554 -17 0
-555 -18 0
-277 -19 0
-278 -20 0
-279 -21 0
-313 -19 0
-314 -20 0
-315 -21 0
-325 -19 0
-326 -20 0
-327 -21 0
-358 -19 0
-359 -20 0
-360 -21 0
-550 -19 0
-551 -20 0
-552 -21 0
-592 -19 0
-593 -20 0
-594 -21 0
-196 -22 0
-197 -23 0
-198 -24 0
-331 -22 0
-332 -23 0
-333 -24 0
-364 -22 0
-365 -23 0
-366 -24 0
-421 -22 0
-422 -23 0
-423 -24 0
-499 -22 0
-500 -23 0
-501 -24 0
-577 -22 0
-578 -23 0
-579 -24 0
-73 -25 0
-74 -26 0
-75 -27 0
-148 -25 0
-149 -26 0
-150 -27 0
-157 -25 0
-158 -26 0
-159 -27 0
-160 -25 0
-161 -26 0
-162 -27 0
-226 -25 0
-227 -26 0
-228 -27 0
-286 -25 0
-287 -26 0
-288 -27 0
-421 -25 0
-422 -26 0
-423 -27 0
-490 -25 0
-491 -26 0
-492 -27 0
-58 -28 0
-59 -29 0
-60 -30 0
-196 -28 0
-197 -29 0
-198 -30 0
-292 -28 0
-293 -29 0
-294 -30 0
-316 -28 0
-317 -29 0
-318 -30 0
-427 -28 0
-428 -29 0
-429 -30 0
-49 -31 0
-50 -32 0
-51 -33 0
-85 -31 0
-86 -32 0
-87 -33 0
-187 -31 0
-188 -32 0
-189 -33 0
-265 -31 0
-266 -32 0
-267 -33 0
-352 -31 0
-353 -32 0
-354 -33 0
-430 -31 0
-431 -32 0
-432 -33 0
-559 -31 0
-560 -32 0
-561 -33 0
-589 -31 0
-590 -32 0
-591 -33 0
-76 -34 0
-77 -35 0
-78 -36 0
-148 -34 0
-149 -35 0
-150 -36 0
-361 -34 0
-362 -35 0
-363 -36 0
-493 -34 0
-494 -35 0
-495 -36 0
-511 -34 0
-512 -35 0
-513 -36 0
-592 -34 0
-593 -35 0
-594 -36 0
-43 -37 0
-44 -38 0
-45 -39 0
-88 -37 0
-89 -38 0
-90 -39 0
-103 -37 0
-104 -38 0
-105 -39 0
-175 -37 0
-176 -38 0
-177 -39 0
-232 -37 0
-233 -38 0
-234 -39 0
-244 -37 0
-245 -38 0
-246 -39 0
-340 -37 0
-341 -38 0
-342 -39 0
-82 -40 0
-83 -41 0
-84 -42 0
-124 -40 0
-125 -41 0
-126 -42 0
-370 -40 0
-371 -41 0
-372 -42 0
-478 -40 0
-479 -41 0
-480 -42 0
-547 -40 0
-548 -41 0
-549 -42 0
-586 -40 0
-587 -41 0
-588 -42 0
-82 -43 0
-83 -44 0
-84 -45 0
-94 -43 0
-95 -44 0
-96 -45 0
-97 -43 0
-98 -44 0
-99 -45 0
-298 -43 0
-299 -44 0
-300 -45 0
-544 -43 0
-545 -44 0
-546 -45 0
-595 -43 0
-596 -44 0
-597 -45 0
-112 -46 0
-113 -47 0
-114 -48 0
-118 -46 0
-119 -47 0
-120 -48 0
-364 -49 0
-365 -50 0
-366 -51 0
-520 -49 0
-521 -50 0
-522 -51 0
-58 -52 0
-59 -53 0
-60 -54 0
-376 -52 0
-377 -53 0
-378 -54 0
-472 -52 0
-473 -53 0
-474 -54 0
-484 -52 0
-485 -53 0
-486 -54 0
-544 -52 0
-545 -53 0
-546 -54 0
-373 -55 0
-374 -56 0
-375 -57 0
-472 -55 0
-473 -56 0
-474 -57 0
-214 -58 0
-215 -59 0
-216 -60 0
-247 -58 0
-248 -59 0
-249 -60 0
-529 -58 0
-530 -59 0
-531 -60 0
-82 -61 0
-83 -62 0
-84 -63 0
-196 -61 0
-197 -62 0
-198 -63 0
-256 -61 0
-257 -62 0
-258 -63 0
-382 -61 0
-383 -62 0
-384 -63 0
-595 -61 0
-596 -62 0
-597 -63 0
-154 -64 0
-155 -65 0
-156 -66 0
-265 -64 0
-266 -65 0
-267 -66 0
-391 -64 0
-392 -65 0
-393 -66 0
-430 -64 0
-431 -65 0
-432 -66 0
-436 -64 0
-437 -65 0
-438 -66 0
-448 -64 0
-449 -65 0
-450 -66 0
-514 -64 0
-515 -65 0
-516 -66 0
-409 -67 0
-410 -68 0
-411 -69 0
-436 -67 0
-437 -68 0
-438 -69 0
-568 -67 0
-569 -68 0
-570 -69 0
-586 -67 0
-587 -68 0
-588 -69 0
-127 -70 0
-128 -71 0
-129 -72 0
-481 -70 0
-482 -71 0
-483 -72 0
-193 -73 0
-194 -74 0
-195 -75 0
-406 -73 0
-407 -74 0
-408 -75 0
-445 -73 0
-446 -74 0
-447 -75 0
-541 -73 0
-542 -74 0
-543 -75 0
-577 -73 0
-578 -74 0
-579 -75 0
-118 -76 0
-119 -77 0
-120 -78 0
-148 -76 0
-149 -77 0
-150 -78 0
-175 -76 0
-176 -77 0
-177 -78 0
-502 -76 0
-503 -77 0
-504 -78 0
-253 -79 0
-254 -80 0
-255 -81 0
-529 -79 0
-530 -80 0
-531 -81 0
-145 -82 0
-146 -83 0
-147 -84 0
-511 -82 0
-512 -83 0
-513 -84 0
-322 -85 0
-323 -86 0
-324 -87 0
-508 -85 0
-509 -86 0
-510 -87 0
-520 -85 0
-521 -86 0
-522 -87 0
-568 -85 0
-569 -86 0
-570 -87 0
-205 -88 0
-206 -89 0
-207 -90 0
-229 -88 0
-230 -89 0
-231 -90 0
-304 -88 0
-305 -89 0
-306 -90 0
-547 -88 0
-548 -89 0
-549 -90 0
-262 -91 0
-263 -92 0
-264 -93 0
-388 -91 0
-389 -92 0
-390 -93 0
-412 -91 0
-413 -92 0
-414 -93 0
-418 -91 0
-419 -92 0
-420 -93 0
-556 -91 0
-557 -92 0
-558 -93 0
-247 -94 0
-248 -95 0
-249 -96 0
-427 -94 0
-428 -95 0
-429 -96 0
-514 -94 0
-515 -95 0
-516 -96 0
-394 -97 0
-395 -98 0
-396 -99 0
-409 -97 0
-410 -98 0
-411 -99 0
-466 -97 0
-467 -98 0
-468 -99 0
-121 -100 0
-122 -101 0
-123 -102 0
-190 -100 0
-191 -101 0
-192 -102 0
-250 -100 0
-251 -101 0
-252 -102 0
-262 -100 0
-263 -101 0
-264 -102 0
-487 -100 0
-488 -101 0
-489 -102 0
-523 -100 0
-524 -101 0
-525 -102 0
-199 -103 0
-200 -104 0
-201 -105 0
-556 -103 0
-557 -104 0
-558 -105 0
-115 -106 0
-116 -107 0
-117 -108 0
-133 -106 0
-134 -107 0
-135 -108 0
-151 -106 0
-152 -107 0
-153 -108 0
-172 -106 0
-173 -107 0
-174 -108 0
-184 -106 0
-185 -107 0
-186 -108 0
-217 -106 0
-218 -107 0
-219 -108 0
-271 -106 0
-272 -107 0
-273 -108 0
-484 -106 0
-485 -107 0
-486 -108 0
-307 -109 0
-308 -110 0
-309 -111 0
-208 -112 0
-209 -113 0
-210 -114 0
-400 -112 0
-401 -113 0
-402 -114 0
-427 -112 0
-428 -113 0
-429 -114 0
-457 -112 0
-458 -113 0
-459 -114 0
-460 -112 0
-461 -113 0
-462 -114 0
-277 -115 0
-278 -116 0
-279 -117 0
-373 -115 0
-374 -116 0
-375 -117 0
-469 -115 0
-470 -116 0
-471 -117 0
-127 -118 0
-128 -119 0
-129 -120 0
-151 -118 0
-152 -119 0
-153 -120 0
-268 -118 0
-269 -119 0
-270 -120 0
-127 -121 0
-128 -122 0
-129 -123 0
-232 -121 0
-233 -122 0
-234 -123 0
-391 -121 0
-392 -122 0
-393 -123 0
-223 -124 0
-224 -125 0
-225 -126 0
-253 -124 0
-254 -125 0
-255 -126 0
-367 -124 0
-368 -125 0
-369 -126 0
-499 -124 0
-500 -125 0
-501 -126 0
-172 -127 0
-173 -128 0
-174 -129 0
-253 -127 0
-254 -128 0
-255 -129 0
-565 -127 0
-566 -128 0
-567 -129 0
-595 -127 0
-596 -128 0
-597 -129 0
-424 -130 0
-425 -131 0
-426 -132 0
-436 -130 0
-437 -131 0
-438 -132 0
-265 -133 0
-266 -134 0
-267 -135 0
-457 -133 0
-458 -134 0
-459 -135 0
-502 -133 0
-503 -134 0
-504 -135 0
-508 -133 0
-509 -134 0
-510 -135 0
-184 -136 0
-185 -137 0
-186 -138 0
-190 -136 0
-191 -137 0
-192 -138 0
-340 -136 0
-341 -137 0
-342 -138 0
-577 -136 0
-578 -137 0
-579 -138 0
-268 -139 0
-269 -140 0
-270 -141 0
-271 -139 0
-272 -140 0
-273 -141 0
-382 -139 0
-383 -140 0
-384 -141 0
-388 -139 0
-389 -140 0
-390 -141 0
-322 -142 0
-323 -143 0
-324 -144 0
-562 -142 0
-563 -143 0
-564 -144 0
-160 -145 0
-161 -146 0
-162 -147 0
-178 -145 0
-179 -146 0
-180 -147 0
-367 -145 0
-368 -146 0
-369 -147 0
-394 -145 0
-395 -146 0
-396 -147 0
-487 -145 0
-488 -146 0
-489 -147 0
-241 -148 0
-242 -149 0
-243 -150 0
-313 -148 0
-314 -149 0
-315 -150 0
-280 -151 0
-281 -152 0
-282 -153 0
-316 -151 0
-317 -152 0
-318 -153 0
-505 -151 0
-506 -152 0
-507 -153 0
-559 -151 0
-560 -152 0
-561 -153 0
-211 -157 0
-212 -158 0
-213 -159 0
-253 -157 0
-254 -158 0
-255 -159 0
-427 -157 0
-428 -158 0
-429 -159 0
-274 -160 0
-275 -161 0
-276 -162 0
-361 -160 0
-362 -161 0
-363 -162 0
-442 -160 0
-443 -161 0
-444 -162 0
-517 -160 0
-518 -161 0
-519 -162 0
-286 -163 0
-287 -164 0
-288 -165 0
-571 -163 0
-572 -164 0
-573 -165 0
-589 -163 0
-590 -164 0
-591 -165 0
-370 -166 0
-371 -167 0
-372 -168 0
-574 -166 0
-575 -167 0
-576 -168 0
-367 -169 0
-368 -170 0
-369 -171 0
-439 -169 0
-440 -170 0
-441 -171 0
-472 -169 0
-473 -170 0
-474 -171 0
-493 -169 0
-494 -170 0
-495 -171 0
-556 -169 0
-557 -170 0
-558 -171 0
-274 -172 0
-275 -173 0
-276 -174 0
-301 -172 0
-302 -173 0
-303 -174 0
-466 -172 0
-467 -173 0
-468 -174 0
-385 -175 0
-386 -176 0
-387 -177 0
-445 -175 0
-446 -176 0
-447 -177 0
-493 -175 0
-494 -176 0
-495 -177 0
-511 -175 0
-512 -176 0
-513 -177 0
-199 -178 0
-200 -179 0
-201 -180 0
-247 -178 0
-248 -179 0
-249 -180 0
-304 -178 0
-305 -179 0
-306 -180 0
-514 -178 0
-515 -179 0
-516 -180 0
-325 -181 0
-326 -182 0
-327 -183 0
-208 -184 0
-209 -185 0
-210 -186 0
-400 -184 0
-401 -185 0
-402 -186 0
-205 -187 0
-206 -188 0
-207 -189 0
-358 -187 0
-359 -188 0
-360 -189 0
-511 -187 0
-512 -188 0
-513 -189 0
-586 -187 0
-587 -188 0
-588 -189 0
-307 -190 0
-308 -191 0
-309 -192 0
-361 -190 0
-362 -191 0
-363 -192 0
-379 -190 0
-380 -191 0
-381 -192 0
-415 -190 0
-416 -191 0
-417 -192 0
-502 -190 0
-503 -191 0
-504 -192 0
-505 -190 0
-506 -191 0
-507 -192 0
-214 -193 0
-215 -194 0
-216 -195 0
-307 -193 0
-308 -194 0
-309 -195 0
-340 -193 0
-341 -194 0
-342 -195 0
-292 -196 0
-293 -197 0
-294 -198 0
-448 -196 0
-449 -197 0
-450 -198 0
-538 -196 0
-539 -197 0
-540 -198 0
-586 -196 0
-587 -197 0
-588 -198 0
-310 -199 0
-311 -200 0
-312 -201 0
-322 -199 0
-323 -200 0
-324 -201 0
-523 -199 0
-524 -200 0
-525 -201 0
-220 -202 0
-221 -203 0
-222 -204 0
-250 -202 0
-251 -203 0
-252 -204 0
-337 -202 0
-338 -203 0
-339 -204 0
-373 -205 0
-374 -206 0
-375 -207 0
-499 -205 0
-500 -206 0
-501 -207 0
-529 -205 0
-530 -206 0
-531 -207 0
-532 -205 0
-533 -206 0
-534 -207 0
-295 -208 0
-296 -209 0
-297 -210 0
-484 -208 0
-485 -209 0
-486 -210 0
-547 -208 0
-548 -209 0
-549 -210 0
-592 -208 0
-593 -209 0
-594 -210 0
-412 -211 0
-413 -212 0
-414 -213 0
-277 -214 0
-278 -215 0
-279 -216 0
-574 -214 0
-575 -215 0
-576 -216 0
-598 -214 0
-599 -215 0
-600 -216 0
-223 -217 0
-224 -218 0
-225 -219 0
-226 -217 0
-227 -218 0
-228 -219 0
-235 -217 0
-236 -218 0
-237 -219 0
-244 -217 0
-245 -218 0
-246 -219 0
-250 -217 0
-251 -218 0
-252 -219 0
-316 -220 0
-317 -221 0
-318 -222 0
-331 -220 0
-332 -221 0
-333 -222 0
-460 -220 0
-461 -221 0
-462 -222 0
-343 -223 0
-344 -224 0
-345 -225 0
-376 -223 0
-377 -224 0
-378 -225 0
-487 -223 0
-488 -224 0
-489 -225 0
-526 -223 0
-527 -224 0
-528 -225 0
-583 -223 0
-584 -224 0
-585 -225 0
-259 -226 0
-260 -227 0
-261 -228 0
-265 -226 0
-266 -227 0
-267 -228 0
-355 -226 0
-356 -227 0
-357 -228 0
-274 -229 0
-275 -230 0
-276 -231 0
-334 -229 0
-335 -230 0
-336 -231 0
-481 -229 0
-482 -230 0
-483 -231 0
-544 -229 0
-545 -230 0
-546 -231 0
-547 -229 0
-548 -230 0
-549 -231 0
-403 -232 0
-404 -233 0
-405 -234 0
-292 -235 0
-293 -236 0
-294 -237 0
-565 -235 0
-566 -236 0
-567 -237 0
-589 -235 0
-590 -236 0
-591 -237 0
-247 -238 0
-248 -239 0
-249 -240 0
-355 -238 0
-356 -239 0
-357 -240 0
-427 -238 0
-428 -239 0
-429 -240 0
-565 -238 0
-566 -239 0
-567 -240 0
-322 -241 0
-323 -242 0
-324 -243 0
-532 -241 0
-533 -242 0
-534 -243 0
-247 -244 0
-248 -245 0
-249 -246 0
-535 -244 0
-536 -245 0
-537 -246 0
-469 -247 0
-470 -248 0
-471 -249 0
-577 -247 0
-578 -248 0
-579 -249 0
-310 -250 0
-311 -251 0
-312 -252 0
-448 -250 0
-449 -251 0
-450 -252 0
-544 -250 0
-545 -251 0
-546 -252 0
-274 -253 0
-275 -254 0
-276 -255 0
-382 -253 0
-383 -254 0
-384 -255 0
-403 -253 0
-404 -254 0
-405 -255 0
-487 -253 0
-488 -254 0
-489 -255 0
-481 -256 0
-482 -257 0
-483 -258 0
-496 -256 0
-497 -257 0
-498 -258 0
-502 -256 0
-503 -257 0
-504 -258 0
-319 -259 0
-320 -260 0
-321 -261 0
-490 -259 0
-491 -260 0
-492 -261 0
-529 -259 0
-530 -260 0
-531 -261 0
-370 -262 0
-371 -263 0
-372 -264 0
-436 -262 0
-437 -263 0
-438 -264 0
-445 -262 0
-446 -263 0
-447 -264 0
-268 -265 0
-269 -266 0
-270 -267 0
-520 -271 0
-521 -272 0
-522 -273 0
-529 -271 0
-530 -272 0
-531 -273 0
-310 -274 0
-311 -275 0
-312 -276 0
-394 -274 0
-395 -275 0
-396 -276 0
-439 -274 0
-440 -275 0
-441 -276 0
-400 -277 0
-401 -278 0
-402 -279 0
-385 -280 0
-386 -281 0
-387 -282 0
-394 -280 0
-395 -281 0
-396 -282 0
-421 -280 0
-422 -281 0
-423 -282 0
-472 -280 0
-473 -281 0
-474 -282 0
-535 -280 0
-536 -281 0
-537 -282 0
-370 -283 0
-371 -284 0
-372 -285 0
-433 -283 0
-434 -284 0
-435 -285 0
-457 -283 0
-458 -284 0
-459 -285 0
-526 -283 0
-527 -284 0
-528 -285 0
-343 -289 0
-344 -290 0
-345 -291 0
-430 -289 0
-431 -290 0
-432 -291 0
-592 -289 0
-593 -290 0
-594 -291 0
-349 -292 0
-350 -293 0
-351 -294 0
-376 -292 0
-377 -293 0
-378 -294 0
-379 -292 0
-380 -293 0
-381 -294 0
-448 -292 0
-449 -293 0
-450 -294 0
-391 -295 0
-392 -296 0
-393 -297 0
-403 -295 0
-404 -296 0
-405 -297 0
-586 -295 0
-587 -296 0
-588 -297 0
-316 -298 0
-317 -299 0
-318 -300 0
-397 -298 0
-398 -299 0
-399 -300 0
-313 -301 0
-314 -302 0
-315 -303 0
-322 -301 0
-323 -302 0
-324 -303 0
-421 -301 0
-422 -302 0
-423 -303 0
-505 -301 0
-506 -302 0
-507 -303 0
-589 -301 0
-590 -302 0
-591 -303 0
-316 -304 0
-317 -305 0
-318 -306 0
-328 -304 0
-329 -305 0
-330 -306 0
-334 -304 0
-335 -305 0
-336 -306 0
-505 -304 0
-506 -305 0
-507 -306 0
-574 -304 0
-575 -305 0
-576 -306 0
-580 -304 0
-581 -305 0
-582 -306 0
-349 -310 0
-350 -311 0
-351 -312 0
-433 -310 0
-434 -311 0
-435 -312 0
-382 -313 0
-383 -314 0
-384 -315 0
-526 -313 0
-527 -314 0
-528 -315 0
-337 -316 0
-338 -317 0
-339 -318 0
-595 -316 0
-596 -317 0
-597 -318 0
-388 -322 0
-389 -323 0
-390 -324 0
-370 -325 0
-371 -326 0
-372 -327 0
-424 -325 0
-425 -326 0
-426 -327 0
-538 -325 0
-539 -326 0
-540 -327 0
-541 -325 0
-542 -326 0
-543 -327 0
-544 -325 0
-545 -326 0
-546 -327 0
-346 -328 0
-347 -329 0
-348 -330 0
-406 -328 0
-407 -329 0
-408 -330 0
-415 -331 0
-416 -332 0
-417 -333 0
-400 -334 0
-401 -335 0
-402 -336 0
-577 -334 0
-578 -335 0
-579 -336 0
-397 -337 0
-398 -338 0
-399 -339 0
-367 -343 0
-368 -344 0
-369 -345 0
-445 -346 0
-446 -347 0
-447 -348 0
-481 -346 0
-482 -347 0
-483 -348 0
-517 -346 0
-518 -347 0
-519 -348 0
-529 -346 0
-530 -347 0
-531 -348 0
-577 -346 0
-578 -347 0
-579 -348 0
-379 -349 0
-380 -350 0
-381 -351 0
-409 -349 0
-410 -350 0
-411 -351 0
-439 -349 0
-440 -350 0
-441 -351 0
-355 -352 0
-356 -353 0
-357 -354 0
-409 -352 0
-410 -353 0
-411 -354 0
-445 -352 0
-446 -353 0
-447 -354 0
-559 -352 0
-560 -353 0
-561 -354 0
-577 -352 0
-578 -353 0
-579 -354 0
-595 -352 0
-596 -353 0
-597 -354 0
-532 -355 0
-533 -356 0
-534 -357 0
-433 -358 0
-434 -359 0
-435 -360 0
-364 -361 0
-365 -362 0
-366 -363 0
-466 -361 0
-467 -362 0
-468 -363 0
-571 -361 0
-572 -362 0
-573 -363 0
-403 -364 0
-404 -365 0
-405 -366 0
-451 -364 0
-452 -365 0
-453 -366 0
-553 -364 0
-554 -365 0
-555 -366 0
-442 -370 0
-443 -371 0
-444 -372 0
-412 -373 0
-413 -374 0
-414 -375 0
-448 -373 0
-449 -374 0
-450 -375 0
-541 -376 0
-542 -377 0
-543 -378 0
-595 -379 0
-596 -380 0
-597 -381 0
-532 -382 0
-533 -383 0
-534 -384 0
-478 -391 0
-479 -392 0
-480 -393 0
-508 -391 0
-509 -392 0
-510 -393 0
-517 -394 0
-518 -395 0
-519 -396 0
-541 -397 0
-542 -398 0
-543 -399 0
-481 -400 0
-482 -401 0
-483 -402 0
-490 -400 0
-491 -401 0
-492 -402 0
-508 -400 0
-509 -401 0
-510 -402 0
-436 -406 0
-437 -407 0
-438 -408 0
-502 -406 0
-503 -407 0
-504 -408 0
-511 -406 0
-512 -407 0
-513 -408 0
-574 -406 0
-575 -407 0
-576 -408 0
-430 -409 0
-431 -410 0
-432 -411 0
-421 -412 0
-422 -413 0
-423 -414 0
-466 -415 0
-467 -416 0
-468 -417 0
-598 -415 0
-599 -416 0
-600 -417 0
-445 -418 0
-446 -419 0
-447 -420 0
-508 -418 0
-509 -419 0
-510 -420 0
-505 -424 0
-506 -425 0
-507 -426 0
-511 -424 0
-512 -425 0
-513 -426 0
-463 -430 0
-464 -431 0
-465 -432 0
-478 -433 0
-479 -434 0
-480 -435 0
-589 -436 0
-590 -437 0
-591 -438 0
-514 -439 0
-515 -440 0
-516 -441 0
-526 -445 0
-527 -446 0
-528 -447 0
-565 -445 0
-566 -446 0
-567 -447 0
-553 -448 0
-554 -449 0
-555 -450 0
-571 -448 0
-572 -449 0
-573 -450 0
-508 -451 0
-509 -452 0
-510 -453 0
-556 -460 0
-557 -461 0
-558 -462 0
-466 -463 0
-467 -464 0
-468 -465 0
-517 -463 0
-518 -464 0
-519 -465 0
-523 -463 0
-524 -464 0
-525 -465 0
-472 -466 0
-473 -467 0
-474 -468 0
-496 -466 0
-497 -467 0
-498 -468 0
-490 -475 0
-491 -476 0
-492 -477 0
-592 -475 0
-593 -476 0
-594 -477 0
-580 -478 0
-581 -479 0
-582 -480 0
-577 -481 0
-578 -482 0
-579 -483 0
-496 -484 0
-497 -485 0
-498 -486 0
-508 -487 0
-509 -488 0
-510 -489 0
-598 -487 0
-599 -488 0
-600 -489 0
-511 -493 0
-512 -494 0
-513 -495 0
-523 -493 0
-524 -494 0
-525 -495 0
-541 -493 0
-542 -494 0
-543 -495 0
-532 -499 0
-533 -500 0
-534 -501 0
-556 -499 0
-557 -500 0
-558 -501 0
-523 -505 0
-524 -506 0
-525 -507 0
-544 -514 0
-545 -515 0
-546 -516 0
-568 -514 0
-569 -515 0
-570 -516 0
-523 -520 0
-524 -521 0
-525 -522 0
-580 -526 0
-581 -527 0
-582 -528 0
-586 -526 0
-587 -527 0
-588 -528 0
-586 -532 0
-587 -533 0
-588 -534 0
-571 -550 0
-572 -551 0
-573 -552 0
-598 -562 0
-599 -563 0
-600 -564 0
-574 -565 0
-575 -566 0
-576 -567 0
